Minimize

5 x_0 + 4 x_1 + 3 x_2 + 5 x_3 + 5 x_4 + 8 x_5 + 8 x_6 + 7 x_7 + 6 x_8 + 10 x_9


Subject To

a0: 1 x_0 + 0 x_1 + 0 x_2 + 0 x_3 + 0 x_4 + 0 x_5 + 0 x_6 + 1 x_7 + 0 x_8 + 0 x_9 >= 1
a1: 0 x_0 + 0 x_1 + 1 x_2 + 0 x_3 + 0 x_4 + 0 x_5 + 1 x_6 + 0 x_7 + 0 x_8 + 1 x_9 >= 1
a2: 0 x_0 + 1 x_1 + 0 x_2 + 0 x_3 + 1 x_4 + 0 x_5 + 0 x_6 + 0 x_7 + 1 x_8 + 0 x_9 >= 1
a3: 0 x_0 + 0 x_1 + 0 x_2 + 1 x_3 + 0 x_4 + 0 x_5 + 0 x_6 + 0 x_7 + 0 x_8 + 0 x_9 >= 1
a4: 0 x_0 + 0 x_1 + 0 x_2 + 0 x_3 + 0 x_4 + 1 x_5 + 0 x_6 + 0 x_7 + 0 x_8 + 0 x_9 >= 1
b0: 5 x_0 + 7 x_7 <= 10
b1: 3 x_2 + 8 x_6 + 10 x_9 <= 10
b2: 4 x_1 + 5 x_4 + 6 x_8 <= 10
b3: 5 x_3 <= 10
b4: 8 x_5 <= 10
c0: 2 x_0 + 1 x_1 + 3 x_2 + 1 x_3 + 1 x_4 + 1 x_5 + 2 x_6 + 5 x_7 + 4 x_8 + 4 x_9 - 3 x_0 - 3 x_1 - 3 x_2 - 3 x_3 - 3 x_4 - 3 x_5 - 3 x_6 - 3 x_7 - 3 x_8 - 3 x_9 >= 0




Binary

x_0 x_1 x_2 x_3 x_4 x_5 x_6 x_7 x_8 x_9

 


End
